8272 -1 6595 19400 8272
7944 -1 5164 15528 7944
8294 -1 7077 21450 8294
8244 -1 6266 18498 8244
7750 -1 5912 17704 7750
8272 -1 5441 17148 8272
8260 -1 7236 21453 8260
8076 -1 5245 16386 8076
8184 -1 5663 16511 8184
7904 -1 6122 18275 7904
